p edge 25 28
e 0 2
e 1 9
e 1 11
e 2 12
e 2 23
e 3 5
e 3 16
e 5 11
e 5 20
e 6 9
e 6 22
e 7 8
e 8 23
e 8 24
e 9 11
e 10 14
e 10 24
e 11 14
e 11 19
e 12 19
e 14 23
e 15 16
e 15 18
e 18 21
e 18 22
e 19 22
e 21 22
e 22 23
